NAME : G100_1313_01
COMMENT : Generated CVRP instance (n=100)
TYPE : CVRP
DIMENSION : 101
EDGE_WEIGHT_TYPE : EUC_2D
CAPACITY : 9
NODE_COORD_SECTION
1    263  995 
2    127  415 
3    133  333 
4    134  396 
5    756  525 
6    205  401 
7    60   339 
8    185  434 
9    99   529 
10   698  300 
11   608  580 
12   181  848 
13   381  336 
14   910  338 
15   785  981 
16   949  491 
17   78   655 
18   186  264 
19   0    565 
20   797  546 
21   721  999 
22   19   660 
23   84   399 
24   704  528 
25   929  591 
26   653  562 
27   134  400 
28   702  622 
29   753  548 
30   189  918 
31   239  656 
32   218  926 
33   806  523 
34   694  681 
35   964  432 
36   462  551 
37   239  384 
38   292  933 
39   739  707 
40   717  2   
41   0    297 
42   149  996 
43   851  770 
44   651  971 
45   698  903 
46   980  280 
47   220  293 
48   441  688 
49   518  5   
50   120  953 
51   641  377 
52   309  7   
53   85   842 
54   602  690 
55   726  478 
56   100  406 
57   303  274 
58   174  538 
59   154  926 
60   910  808 
61   557  122 
62   577  79  
63   101  635 
64   637  331 
65   202  531 
66   77   628 
67   681  459 
68   68   494 
69   781  598 
70   796  525 
71   496  596 
72   70   659 
73   63   983 
74   799  560 
75   349  296 
76   675  253 
77   10   839 
78   46   661 
79   50   994 
80   151  686 
81   769  199 
82   117  129 
83   168  949 
84   145  929 
85   146  754 
86   853  652 
87   638  401 
88   109  628 
89   585  801 
90   325  789 
91   656  306 
92   124  936 
93   106  592 
94   63   121 
95   827  44  
96   312  324 
97   229  665 
98   707  81  
99   399  84  
100  132  430 
101  232  828 
DEMAND_SECTION
1    0   
2    1   
3    1   
4    1   
5    1   
6    1   
7    1   
8    1   
9    1   
10   1   
11   1   
12   1   
13   1   
14   1   
15   1   
16   1   
17   1   
18   1   
19   1   
20   1   
21   1   
22   1   
23   1   
24   1   
25   1   
26   1   
27   1   
28   1   
29   1   
30   1   
31   1   
32   1   
33   1   
34   1   
35   1   
36   1   
37   1   
38   1   
39   1   
40   1   
41   1   
42   1   
43   1   
44   1   
45   1   
46   1   
47   1   
48   1   
49   1   
50   1   
51   1   
52   1   
53   1   
54   1   
55   1   
56   1   
57   1   
58   1   
59   1   
60   1   
61   1   
62   1   
63   1   
64   1   
65   1   
66   1   
67   1   
68   1   
69   1   
70   1   
71   1   
72   1   
73   1   
74   1   
75   1   
76   1   
77   1   
78   1   
79   1   
80   1   
81   1   
82   1   
83   1   
84   1   
85   1   
86   1   
87   1   
88   1   
89   1   
90   1   
91   1   
92   1   
93   1   
94   1   
95   1   
96   1   
97   1   
98   1   
99   1   
100  1   
101  1   
DEPOT_SECTION
1
-1
EOF
